CMD:
./solvers/bin/cadical --plain --no-reduce -t 1600 ./data/cnfs//beemszmsk1f1/beemszmsk1f1.65.cnf

c --- [ banner ] -------------------------------------------------------------
c 
c CaDiCaL SAT Solver
c Copyright (c) 2016-2024
c A. Biere, M. Fleury, N. Froleyks, K. Fazekas, F. Pollitt, T. Faller
c JKU Linz, University of Freiburg, TU Wien
c 
c Version 2.1.3 5296d3d2a9bf48c154ab2acb5e44625776d821bf
c g++ (Gentoo 12.3.1_p20230526 p2) 12.3.1 20230526 -Wall -Wextra -O3 -DNDEBUG
c Sat Aug 9 07:26:21 PDT 2025 Linux cedar2.int.cedar.computecanada.ca 5.14.0-362.24.2.el9_3.x86_64 x86_64
c 
c --- [ limit ] --------------------------------------------------------------
c 
c setting time limit to 1600 seconds real time (due to '-t 1600')
c 
c --- [ parsing input ] ------------------------------------------------------
c 
c reading DIMACS file from './data/cnfs//beemszmsk1f1/beemszmsk1f1.65.cnf'
c opening file to read './data/cnfs//beemszmsk1f1/beemszmsk1f1.65.cnf'
c found 'p cnf 143686 416332' header
c parsed 416332 clauses in 0.07 seconds process time
c 
c --- [ options ] ------------------------------------------------------------
c 
c   --compact=false                (different from default 'true')
c   --decompose=false              (different from default 'true')
c   --deduplicate=false            (different from default 'true')
c   --elim=false                   (different from default 'true')
c   --probe=false                  (different from default 'true')
c   --reduce=false                 (different from default 'true')
c   --subsume=false                (different from default 'true')
c   --ternary=false                (different from default 'true')
c   --transred=false               (different from default 'true')
c   --vivify=false                 (different from default 'true')
c 
c --- [ solving ] ------------------------------------------------------------
c 
c time measured in process time since initialization
c 
c  seconds  reductions  redundant  irredundant
c         MB    restarts       trail       variables
c          level   conflicts       glue         remaining
c 
c *  0.07 65  0 0   0    0    0  0% 0 373290 67583 47%
c {  0.10 66  0 0   0    0    0  0% 0 373290 67583 47%
c i  0.10 66 39 0   0    6    5 59% 1 373290 67573 47%
c i  0.10 66 44 0   0    9    6 59% 1 373290 67407 47%
c i  0.11 66 52 0   0   23   19 60% 1 373290 67378 47%
c i  0.11 66 51 0   1   33   27 60% 1 373290 67331 47%
c i  0.11 66 44 0   1   40   33 59% 1 373290 67267 47%
c i  0.11 66 40 0   1   45   37 59% 1 373290 67266 47%
c i  0.11 66 39 0   1   46   37 59% 1 373290 67254 47%
c i  0.12 66 28 0  12   97   84 58% 2 373290 67238 47%
c i  0.12 66 28 0  13   99   84 58% 2 373290 67059 47%
c i  0.12 66 27 0  19  123  106 58% 2 373290 67007 47%
c i  0.13 66 29 0  30  173  145 59% 2 373290 66911 47%
c i  0.13 66 28 0  36  197  167 59% 3 373290 66906 47%
c i  0.15 66 31 0  68  322  282 60% 3 373290 66776 46%
c i  0.16 66 29 0  77  407  357 59% 3 373290 66764 46%
c i  0.16 66 29 0  77  411  360 59% 3 373290 66762 46%
c i  0.16 66 29 0  77  414  361 59% 3 373290 66745 46%
c i  0.16 66 29 0  77  419  364 59% 3 373290 66720 46%
c i  0.16 66 29 0  77  427  371 59% 3 373290 66714 46%
c 
c  seconds  reductions  redundant  irredundant
c         MB    restarts       trail       variables
c          level   conflicts       glue         remaining
c 
c i  0.17 66 28 0  77  438  380 59% 3 373290 66713 46%
c i  0.19 66 31 0  97  534  471 60% 3 373290 66655 46%
c i  0.19 66 31 0  97  542  477 60% 3 373290 66654 46%
c i  0.19 66 31 0  97  545  479 60% 3 373290 66653 46%
c i  0.21 66 29 0 104  776  689 61% 3 373290 66637 46%
c i  0.23 66 32 0 114  891  793 61% 3 373290 66622 46%
c i  0.25 66 31 0 126  959  853 61% 3 373290 66607 46%
c i  0.25 66 31 0 126  998  885 61% 3 373290 66563 46%
c }  0.25 66 31 0 126 1001  888 61% 3 373290 66563 46%
c [  0.25 66  0 0 126 1001  888  0% 0 373290 66563 46%
c O  0.27 66 93 0 126 1002  889 99% 3 373290 66563 46%
c ]  0.49 67 129 0 127 3004 2688 82% 15 373290 66563 46%
c {  0.49 67 31 0 127 3004 2688 61% 3 373290 66563 46%
c F  0.49 67 31 0 127 3005 2688 61% 3 373290 66563 46%
c i  0.49 67 31 0 127 3005 2688 61% 3 373290 66562 46%
c i  0.52 67 30 0 152 3195 2864 61% 3 373290 66524 46%
c i  0.54 67 30 0 163 3304 2966 61% 3 373290 66523 46%
c i  0.54 67 31 0 164 3353 3013 61% 3 373290 66508 46%
c i  0.54 67 32 0 164 3399 3056 61% 3 373290 66507 46%
c i  0.54 67 32 0 166 3424 3074 61% 3 373290 66506 46%
c 
c  seconds  reductions  redundant  irredundant
c         MB    restarts       trail       variables
c          level   conflicts       glue         remaining
c 
c i  0.55 67 32 0 166 3429 3078 61% 3 373290 66495 46%
c i  0.55 67 32 0 166 3437 3085 61% 3 373290 66494 46%
c i  0.55 67 32 0 166 3438 3085 61% 3 373290 66493 46%
c i  0.55 67 32 0 166 3448 3092 61% 3 373290 66490 46%
... skipped 944 lines ...
c            level      conflicts          glue          remaining
c 
c i 268.55 268 35 0 30412 474088 416147 73% 14 167685 56803 40%
c i 269.36 268 34 0 30457 475077 417026 73% 14 167685 56776 40%
c i 269.36 268 34 0 30457 475078 417026 73% 14 167685 56767 40%
c i 269.36 268 34 0 30457 475080 417027 73% 14 167685 56766 40%
c i 269.36 268 34 0 30457 475085 417030 73% 14 167685 56760 40%
c i 269.65 268 34 0 30497 475347 417261 73% 14 167685 56759 40%
c i 270.05 268 34 0 30522 475790 417659 73% 14 167685 56758 40%
c i 270.73 268 34 0 30569 476532 418334 73% 14 167685 56757 40%
c i 271.26 268 34 0 30570 477311 418931 73% 14 167685 56756 40%
c i 273.77 268 34 0 30603 481532 422399 73% 13 167685 56755 39%
c i 274.75 268 33 0 30603 483203 423837 73% 13 167685 56754 39%
c i 274.98 268 33 0 30623 483424 423991 73% 13 167685 56731 39%
c i 275.92 268 33 0 30653 484631 424968 73% 13 167685 56730 39%
c i 277.89 268 33 0 30750 486888 426892 73% 13 167685 56729 39%
c i 277.93 268 33 0 30750 486974 426956 73% 13 167685 56728 39%
c i 280.25 268 33 0 30818 490309 429748 73% 13 167685 56727 39%
c i 280.53 268 33 0 30818 490651 430026 73% 13 167685 56726 39%
c i 280.55 268 33 0 30819 490738 430106 73% 13 167685 56725 39%
c i 280.58 268 33 0 30819 490815 430164 73% 13 167685 56724 39%
c i 280.58 268 33 0 30819 490816 430164 73% 13 167685 56723 39%
c 
c  seconds    reductions       redundant    irredundant
c           MB     restarts            trail        variables
c            level      conflicts          glue          remaining
c 
c i 280.59 268 33 0 30819 490886 430213 73% 13 167685 56722 39%
c i 280.97 268 33 0 30870 491296 430551 73% 13 167685 56718 39%
c i 281.66 268 33 0 30933 491895 431098 73% 13 167685 56717 39%
c W 285.25 290 32 0 31038 496072 423421 73% 13 165815 56717 39%
c i 286.32 290 32 0 31048 497546 424492 73% 13 165815 56709 39%
c i 291.10 290 31 0 31357 503117 428970 73% 13 165815 56708 39%
c i 291.66 290 31 0 31384 503690 429414 73% 13 165815 56707 39%
c i 292.78 290 31 0 31398 504959 430338 73% 13 165815 56705 39%
c i 295.46 290 31 0 31533 508346 433130 73% 13 165815 56704 39%
c } 297.50 290 30 0 31622 511020 435253 73% 13 165815 56704 39%
c [ 297.50 290 78 0 31622 511020 435253 74% 22 165815 56704 39%
c i 300.39 290 76 0 31622 514615 438407 74% 21 165815 56703 39%
c i 300.45 290 76 0 31622 514698 438477 74% 21 165815 56702 39%
c i 300.45 290 76 0 31622 514699 438477 74% 21 165815 56701 39%
c i 300.45 290 76 0 31622 514700 438477 74% 21 165815 56700 39%
c i 304.19 290 73 0 31622 519647 442481 74% 21 165815 53768 37%
c i 304.30 290 73 0 31622 519723 442503 74% 21 165815 51959 36%
c ] 304.31 290 73 0 31622 519742 442506 74% 21 165815 48510 34%
c 0 304.31 290 73 0 31622 519742 442506 74% 21 165815 48510 34%
c 
c --- [ result ] -------------------------------------------------------------
c 
s UNSATISFIABLE
c 
c --- [ run-time profiling ] -------------------------------------------------
c 
c process time taken by individual solving procedures
c (percentage relative to process time for solving)
c 
c       304.23  100.00% search
c       237.84   78.18% unstable
c        64.68   21.26% stable
c         1.69    0.56% walk
c         0.07    0.02% parse
c         0.03    0.01% lucky
c         0.00    0.00% simplify
c   =================================
c       304.23   99.98% solve
c 
c last line shows process time for solving
c (percentage relative to total process time)
c 
c --- [ statistics ] ---------------------------------------------------------
c 
c chronological:            151323        29.12 %  of conflicts
c conflicts:                519742      1708.37    per second
c decisions:               2129953      7001.08    per second
c fixed:                     95176        66.24 %  of all variables
c learned:                  498286        95.87 %  per conflict
c learned_lits:           88074079       100.00 %  learned literals
c minimized:                     0         0.00 %  learned literals
c shrunken:               16636310        18.89 %  learned literals
c minishrunken:           29285951        33.25 %  learned literals
c otfs:                       2012         0.39 %  of conflict
c propagations:         1392792063         4.58 M  per second
c rephased:                     31     16765.87    interval
c restarts:                  31622        16.44    interval
c stabilizing:                   5        34.39 %  of conflicts
c subsumed:                  37386         4.29 %  of all clauses
c strengthened:               1998         0.23 %  of all clauses
c walked:                        9     57749.11    interval
c 
c seconds are measured in process time for solving
c 
c --- [ resources ] ----------------------------------------------------------
c 
c total process time since initialization:       304.31    seconds
c total real time since initialization:          311.51    seconds
c maximum resident set size of process:          419.39    MB
c 
c --- [ shutting down ] ------------------------------------------------------
c 
c exit 20
